(set-logic QF_S)
(declare-fun V29 () String )
(declare-fun V0 () String )
(declare-fun V41 () String )
(declare-fun V9 () String )
(declare-fun V22 () String )
(declare-fun V26 () String )
(declare-fun V7 () String )
(declare-fun V28 () String )
(declare-fun V20 () String )
(declare-fun V49 () String )
(declare-fun V44 () String )
(declare-fun V21 () String )
(declare-fun V33 () String )
(declare-fun V8 () String )
(declare-fun V31 () String )
(declare-fun V11 () String )
(declare-fun V45 () String )
(declare-fun V6 () String )
(declare-fun V27 () String )
(declare-fun V16 () String )
(declare-fun V23 () String )
(declare-fun V38 () String )
(declare-fun V51 () String )
(declare-fun V46 () String )
(declare-fun V5 () String )
(declare-fun V4 () String )
(declare-fun V18 () String )
(declare-fun V17 () String )
(declare-fun V2 () String )
(declare-fun V30 () String )
(declare-fun V24 () String )
(declare-fun V36 () String )
(declare-fun V52 () String )
(declare-fun V48 () String )
(declare-fun V47 () String )
(declare-fun V35 () String )
(declare-fun V34 () String )
(declare-fun V55 () String )
(declare-fun V15 () String )
(declare-fun V10 () String )
(declare-fun V19 () String )
(declare-fun V50 () String )
(declare-fun V54 () String )
(declare-fun V3 () String )
(declare-fun V53 () String )
(declare-fun V14 () String )
(declare-fun V12 () String )
(declare-fun V39 () String )
(declare-fun V40 () String )
(declare-fun V37 () String )
(declare-fun V13 () String )
(declare-fun V25 () String )
(declare-fun V32 () String )
(declare-fun V1 () String )
(assert (= "" "F" ) )
(assert (= "" V6 ) )
(assert (= "" V30 ) )
(assert (= "" V21 ) )
(assert (= "" (str.++ (str.++ V5 V6 ) V7 ) ) )
(assert (= "=" V14 ) )
(assert (= "F" V0 ) )
(assert (= "K" V9 ) )
(assert (= V13 (str.++ (str.++ V23 "K" ) V24 ) ) )
(assert (= V13 (str.++ (str.++ V10 V11 ) V12 ) ) )
(assert (= V13 (str.++ (str.++ V17 V18 ) V19 ) ) )
(assert (= V46 (str.++ (str.++ V44 "k" ) V45 ) ) )
(assert (= V11 (str.++ (str.++ V44 "K" ) V45 ) ) )
(assert (= V51 (str.++ (str.++ V49 "k" ) V50 ) ) )
(assert (= V36 (str.++ (str.++ V49 "K" ) V50 ) ) )
(assert (= V54 V25 ) )
(assert (= V55 V26 ) )
(assert (= V7 V34 ) )
(assert (= V39 V6 ) )
(assert (= V38 (str.++ (str.++ V52 "f" ) V53 ) ) )
(assert (= V8 (str.++ (str.++ V25 "F" ) V26 ) ) )
(assert (= V8 (str.++ (str.++ V32 V33 ) V34 ) ) )
(assert (= V8 (str.++ (str.++ V5 V6 ) V7 ) ) )
(assert (= V2 (str.++ (str.++ V52 "F" ) V53 ) ) )
(assert (= V4 (str.++ (str.++ V29 V30 ) V31 ) ) )
(assert (= V4 (str.++ (str.++ V20 V21 ) V22 ) ) )
(assert (= V4 (str.++ (str.++ V27 "F" ) V28 ) ) )
(assert (= V4 (str.++ (str.++ V15 V8 ) V16 ) ) )
(assert (= V4 (str.++ (str.++ V1 V2 ) V3 ) ) )
(assert (= (str.++ (str.++ V47 "K" ) V48 ) (str.++ (str.++ V38 V39 ) V33 ) ) )
(assert (= (str.++ (str.++ V35 V36 ) V37 ) (str.++ (str.++ V38 V39 ) V33 ) ) )
(assert (= (str.++ (str.++ V40 V13 ) V41 ) (str.++ (str.++ V38 V39 ) V33 ) ) )
(assert (= (str.++ (str.++ V54 "F" ) V55 ) (str.++ (str.++ V25 "F" ) V26 ) ) )
( check-sat )
